Water Network: ../data/d9_HG_SP_4_2.dat
*******************************************************************************

-------------------------------- Solving with gurobi --------------------------
min_demand: 0.0
max_demand: 0.122
max_flow: 0.86381996
eps: 4.002202360536323e-09 

Gurobi 12.0.1: Set parameter LogToConsole to value 1
  tech:outlev = 1
Set parameter Presolve to value 1
  pre:solve = 1
Set parameter TimeLimit to value 3600
  lim:time = 3600
Set parameter Method to value 2
  alg:method = 2
  alg:start = 1
Set parameter BarConvTol to value 1e-09
  bar:convtol = 1e-09
Set parameter FeasibilityTol to value 1e-05
  alg:feastol = 1e-05
  sol:chk:feastolrel = 0
Set parameter MIPGap to value 1e-09
  mip:gap = 1e-09
Set parameter InfUnbdInfo to value 1
Gurobi Optimizer version 12.0.1 build v12.0.1rc0 (linux64 - "Debian GNU/Linux 12 (bookworm)")

CPU model: Intel(R) Xeon(R) Gold 6130 CPU @ 2.10GHz, instruction set [SSE2|AVX|AVX2|AVX512]
Thread count: 32 physical cores, 32 logical processors, using up to 32 threads

Non-default parameters:
TimeLimit  3600
FeasibilityTol  1e-05
MIPGap  1e-09
Method  2
BarConvTol  1e-09
InfUnbdInfo  1
Presolve  1

Optimize a model with 515 rows, 4096 columns and 3602 nonzeros
Model fingerprint: 0x44726782
Model has 174 general nonlinear constraints (5046 nonlinear terms)
Variable types: 4096 continuous, 0 integer (0 binary)
Coefficient statistics:
  Matrix range     [8e-13, 6e+01]
  Objective range  [1e+02, 3e+03]
  Bounds range     [2e-09, 1e+14]
  RHS range        [2e-03, 4e+02]
Warning: Model contains large bounds
         Consider reformulating model or setting NumericFocus parameter
         to avoid numerical issues.
Presolve model has 174 nlconstr
Added 6090 variables to disaggregate expressions.
Presolve removed 35 rows and 1383 columns
Presolve time: 2.68s
Presolved: 17532 rows, 8804 columns, 44741 nonzeros
Presolved model has 2610 bilinear constraint(s)
Presolved model has 522 nonlinear constraint(s)

Solving non-convex MINLP

Variable types: 8804 continuous, 0 integer (0 binary)
  NLP heuristic elapsed time = 6.74s
  NLP heuristic elapsed time = 10.47s
  NLP heuristic elapsed time = 15.25s
  NLP heuristic elapsed time = 21.51s
  NLP heuristic elapsed time = 25.03s
  NLP heuristic elapsed time = 30.56s
  NLP heuristic elapsed time = 35.61s
  NLP heuristic elapsed time = 40.87s
  NLP heuristic elapsed time = 45.91s
  NLP heuristic elapsed time = 50.56s
  NLP heuristic elapsed time = 55.19s
  NLP heuristic elapsed time = 61.80s
  NLP heuristic elapsed time = 67.12s
  NLP heuristic elapsed time = 70.70s
  NLP heuristic elapsed time = 75.34s
  NLP heuristic elapsed time = 81.31s
  NLP heuristic elapsed time = 85.80s
  NLP heuristic elapsed time = 90.12s
  NLP heuristic elapsed time = 95.99s
  NLP heuristic elapsed time = 100.93s
  NLP heuristic elapsed time = 106.20s
  NLP heuristic elapsed time = 110.97s
  NLP heuristic elapsed time = 115.54s
  NLP heuristic elapsed time = 121.25s
  NLP heuristic elapsed time = 126.82s
  NLP heuristic elapsed time = 130.03s
  NLP heuristic elapsed time = 135.14s
  NLP heuristic elapsed time = 140.31s
  NLP heuristic elapsed time = 145.15s
  NLP heuristic elapsed time = 151.38s
Root barrier log...

Ordering time: 0.09s

Barrier statistics:
 AA' NZ     : 1.341e+03
 Factor NZ  : 3.990e+03
 Factor Ops : 5.230e+04 (less than 1 second per iteration)
 Threads    : 1

                  Objective                Residual
Iter       Primal          Dual         Primal    Dual     Compl     Time
   0   1.16993600e+16 -1.07363224e+18  1.74e+13 0.00e+00  1.74e+13   173s
   1   1.16973039e+16 -4.20451148e+18  1.74e+13 5.00e+00  2.04e+13   173s
   2   1.16911805e+16 -3.28649451e+19  1.74e+13 5.23e+00  6.07e+13   173s
   3   1.10791772e+16 -1.15356921e+22  1.64e+13 3.43e+02  5.42e+17   173s
   4   9.59426292e+15 -1.28692741e+23  1.45e+13 5.80e+00  1.74e+19   173s
   5   8.57122388e+15 -1.23681266e+24  1.34e+13 4.77e-07  2.33e+20   173s
   6   7.91236081e+15 -7.63806643e+24  1.27e+13 3.81e-06  1.71e+21   173s

Barrier performed 6 iterations in 173.11 seconds (0.42 work units)
Numerical trouble encountered

Model may be infeasible or unbounded.  Consider using the
homogeneous algorithm (through parameter 'BarHomogeneous')


Root simplex log...

Iteration    Objective       Primal Inf.    Dual Inf.      Time
       0    1.3419698e+06   9.567642e+12   0.000000e+00    173s
      88    1.3419698e+06   0.000000e+00   0.000000e+00    173s
     263    1.3419698e+06   0.000000e+00   0.000000e+00    175s
Extra simplex iterations after uncrush: 175

Root relaxation: objective 1.341970e+06, 263 iterations, 4.16 seconds (0.02 work units)

    Nodes    |    Current Node    |     Objective Bounds      |     Work
 Expl Unexpl |  Obj  Depth IntInf | Incumbent    BestBd   Gap | It/Node Time

     0     0 1341969.78    0  709          - 1341969.78      -     -  176s
     0     0 1341969.78    0  752          - 1341969.78      -     -  183s
     0     0 1341969.78    0  728          - 1341969.78      -     -  187s
     0     0 1341969.78    0  727          - 1341969.78      -     -  192s
     0     0 1341969.78    0  727          - 1341969.78      -     -  195s
     0     0 1341969.78    0  727          - 1341969.78      -     -  199s
     0     0 1341969.78    0  726          - 1341969.78      -     -  202s
     0     0 1341969.78    0  744          - 1341969.78      -     -  409s
  NLP heuristic elapsed time = 5.42s
  NLP heuristic elapsed time = 10.16s
  NLP heuristic elapsed time = 15.22s
  NLP heuristic elapsed time = 23.54s
  NLP heuristic elapsed time = 25.42s
  NLP heuristic elapsed time = 30.10s
  NLP heuristic elapsed time = 35.18s
  NLP heuristic elapsed time = 40.54s
  NLP heuristic elapsed time = 45.41s
  NLP heuristic elapsed time = 50.30s
  NLP heuristic elapsed time = 55.33s
  NLP heuristic elapsed time = 61.22s
  NLP heuristic elapsed time = 65.10s
     0     2 1341969.78    0  744          - 1341969.78      -     - 3607s

Cutting planes:
  RLT: 42

Explored 1 nodes (1583 simplex iterations) in 3608.21 seconds (13.72 work units)
Thread count was 32 (of 32 available processors)

Solution count 0

Time limit reached
Best objective -, best bound 1.341969780000e+06, gap -
Gurobi 12.0.1: time limit, without a feasible solution
1583 simplex iterations
6 barrier iterations
1 branching node
eps [*,*]
:         1            2            3            4            5         :=
37     .            .            .            .           4.0022e-09
50     .            .            .           4.0022e-09    .
76     .            .            .            .           4.0022e-09
90    4.0022e-09    .            .            .            .
113    .           4.0022e-09    .            .            .
125   4.0022e-09    .            .            .            .
138    .            .           4.0022e-09    .            .

:         6            8            9            10           11        :=
6      .            .            .           4.0022e-09    .
24     .           4.0022e-09    .            .            .
43     .            .            .           4.0022e-09    .
71     .            .           4.0022e-09    .            .
80    4.0022e-09    .            .           4.0022e-09    .
85    4.0022e-09    .            .            .            .
126    .            .            .            .           4.0022e-09

:       12           14           15           16           17           18  :=
3   4.0022e-09    .            .            .            .            .
4    .            .            .            .            .           4.0022e-09
20
     .            .            .            .            .           4.0022e-09
26
     .            .            .           4.0022e-09    .            .
27
     .           4.0022e-09    .            .            .            .
39
     .            .            .            .           4.0022e-09    .
41
     .            .            .            .           4.0022e-09    .
67
     .            .            .           4.0022e-09    .            .
110
     .           4.0022e-09    .            .            .            .
142
     .            .           4.0022e-09    .            .            .

:         19           20           21           22           23        :=
9      .            .            .           4.0022e-09    .
12     .            .            .           4.0022e-09    .
18     .            .            .            .           4.0022e-09
20     .            .            .            .           4.0022e-09
68     .           4.0022e-09    .            .            .
93    4.0022e-09    .            .            .            .
115    .            .            .           4.0022e-09    .
129    .            .           4.0022e-09    .            .

:         24           25           26           28           29        :=
1      .           4.0022e-09    .            .            .
9      .            .            .            .           4.0022e-09
51     .            .            .           4.0022e-09    .
73     .            .            .           4.0022e-09    .
74     .            .           4.0022e-09    .            .
86     .            .            .           4.0022e-09    .
101   4.0022e-09    .            .            .            .
112    .            .            .            .           4.0022e-09

:         31           32           33           34           35        :=
7      .            .            .           4.0022e-09    .
49     .            .           4.0022e-09    .            .
57    4.0022e-09    .            .            .            .
60     .           4.0022e-09    .            .            .
73     .           4.0022e-09    .            .            .
102    .            .            .            .           4.0022e-09

:         36           37           38           39           40        :=
24    4.0022e-09    .            .            .            .
30     .            .           4.0022e-09    .            .
31     .           4.0022e-09    .            .            .
42    4.0022e-09    .            .            .            .
83     .            .            .           4.0022e-09   4.0022e-09
120    .            .            .           4.0022e-09    .

:         41           42           43           44           45        :=
13     .            .            .            .           4.0022e-09
33     .            .            .            .           4.0022e-09
35     .            .            .           4.0022e-09    .
40     .            .           4.0022e-09    .            .
62     .           4.0022e-09    .            .            .
75     .           4.0022e-09    .            .            .
85     .            .           4.0022e-09    .            .
133   4.0022e-09    .            .            .            .

:         46           47           48           49           50        :=
2      .            .           4.0022e-09    .            .
11     .            .           4.0022e-09    .            .
20     .            .            .            .           4.0022e-09
25     .            .            .           4.0022e-09    .
78     .           4.0022e-09    .            .            .
96     .           4.0022e-09    .            .            .
100   4.0022e-09    .            .            .            .
110    .            .            .           4.0022e-09    .
123    .            .            .            .           4.0022e-09
125    .            .            .           4.0022e-09    .

:         51           52           53           54           57        :=
11     .           4.0022e-09    .            .            .
17     .            .            .           4.0022e-09    .
41     .            .            .           4.0022e-09    .
47     .            .           4.0022e-09    .            .
48     .           4.0022e-09    .            .            .
56     .            .            .           4.0022e-09    .
60     .            .            .            .           4.0022e-09
77     .            .            .            .           4.0022e-09
78     .            .           4.0022e-09    .            .
95    4.0022e-09    .            .            .            .
103   4.0022e-09    .            .            .            .
109    .           4.0022e-09    .            .            .

:         58           59           60           61           62        :=
5     4.0022e-09    .            .            .            .
9      .           4.0022e-09    .            .            .
32    4.0022e-09    .            .            .            .
58     .            .           4.0022e-09    .            .
72     .            .            .            .           4.0022e-09
76     .           4.0022e-09    .            .            .
86    4.0022e-09    .            .            .            .
130    .            .            .           4.0022e-09    .
135    .           4.0022e-09    .            .            .

:        63           64           65           66           67        :=
23    .            .           4.0022e-09    .            .
27    .            .           4.0022e-09    .            .
32    .            .            .            .           4.0022e-09
44    .            .            .           4.0022e-09    .
46    .           4.0022e-09    .            .            .
53   4.0022e-09    .            .            .            .
74    .            .            .            .           4.0022e-09
99   4.0022e-09    .            .            .            .

:         68           69           70           71           72        :=
10     .            .            .            .           4.0022e-09
21    4.0022e-09    .            .            .            .
42     .           4.0022e-09    .            .            .
79     .            .            .           4.0022e-09    .
101    .            .           4.0022e-09    .            .

:         73           74           75           76           77        :=
36     .            .           4.0022e-09    .            .
37     .            .            .           4.0022e-09    .
55     .            .            .            .           4.0022e-09
60     .           4.0022e-09    .            .            .
87     .            .            .            .           4.0022e-09
95    4.0022e-09    .            .            .            .
106    .            .           4.0022e-09    .            .

:         78           79           80           81           82        :=
8     4.0022e-09    .            .            .            .
34    4.0022e-09    .            .            .            .
52     .            .            .           4.0022e-09    .
82     .            .           4.0022e-09    .            .
89     .            .           4.0022e-09    .            .
109    .            .            .            .           4.0022e-09
117    .           4.0022e-09    .            .            .
143    .           4.0022e-09    .            .            .

:         83           84           85           86           87        :=
17    4.0022e-09    .            .            .            .
19     .           4.0022e-09    .            .            .
35     .            .           4.0022e-09    .            .
63     .            .            .            .           4.0022e-09
66     .            .           4.0022e-09    .            .
70     .            .            .            .           4.0022e-09
91     .            .            .            .           4.0022e-09
111    .            .            .           4.0022e-09    .

:       89           90           91           92           93           94  :=
2   4.0022e-09    .            .            .            .            .
27
     .            .            .            .            .           4.0022e-09
47
     .            .           4.0022e-09    .            .            .
53
     .            .           4.0022e-09    .            .            .
54
     .            .            .            .           4.0022e-09    .
56
     .           4.0022e-09    .            .            .            .
61
     .            .            .            .           4.0022e-09    .
64
     .            .           4.0022e-09    .            .            .
68
     .            .            .            .            .           4.0022e-09
114
     .            .            .           4.0022e-09    .            .
118
     .           4.0022e-09    .            .            .            .
130
     .            .            .            .           4.0022e-09    .

:         95           96           97           99          100        :=
14     .            .           4.0022e-09    .            .
24     .            .            .           4.0022e-09    .
55     .            .           4.0022e-09    .           4.0022e-09
65     .           4.0022e-09    .            .            .
97     .            .            .            .           4.0022e-09
103   4.0022e-09    .            .            .            .
108   4.0022e-09    .            .            .            .

:        101          102          103          104          105        :=
29     .            .           4.0022e-09    .            .
31     .            .            .           4.0022e-09    .
75    4.0022e-09    .            .            .            .
81     .            .            .           4.0022e-09    .
104   4.0022e-09    .            .            .            .
105    .            .           4.0022e-09    .            .
112    .            .            .            .           4.0022e-09
126    .            .            .           4.0022e-09    .
131    .           4.0022e-09    .            .            .
141    .           4.0022e-09    .            .            .

:        106          107          108          109          110        :=
2      .            .            .           4.0022e-09    .
16     .            .            .            .           4.0022e-09
69    4.0022e-09    .            .            .            .
89     .            .            .           4.0022e-09    .
105    .            .           4.0022e-09    .            .
112    .            .           4.0022e-09    .            .
122    .           4.0022e-09    .            .            .

:        111          112          113          114          115        :=
5      .            .            .           4.0022e-09    .
28    4.0022e-09    .            .            .            .
88     .            .            .           4.0022e-09    .
92    4.0022e-09    .            .            .            .
111    .            .            .           4.0022e-09    .
119    .            .            .            .           4.0022e-09
128    .           4.0022e-09    .            .            .
135    .            .           4.0022e-09    .            .

:        116          117          118          119          121        :=
71     .            .            .           4.0022e-09    .
98     .            .           4.0022e-09    .            .
107   4.0022e-09    .            .            .            .
124    .            .            .            .           4.0022e-09
140    .            .            .            .           4.0022e-09
143    .           4.0022e-09    .            .            .

:        123          125          126          128          129        :=
15     .            .            .           4.0022e-09    .
45     .           4.0022e-09    .            .            .
59     .            .           4.0022e-09    .            .
76     .            .           4.0022e-09    .            .
84    4.0022e-09    .            .            .            .
94     .            .            .            .           4.0022e-09
121    .            .            .           4.0022e-09    .

:        130          133          134          135          136        :=
21    4.0022e-09    .            .            .            .
22     .            .            .           4.0022e-09    .
38    4.0022e-09    .            .            .            .
102    .            .           4.0022e-09    .            .
127    .            .            .            .           4.0022e-09
132    .           4.0022e-09    .            .            .
139    .            .           4.0022e-09    .            .

:        138          141          142          143        :=
115   4.0022e-09    .            .            .
116    .            .           4.0022e-09    .
134    .           4.0022e-09    .            .
136    .           4.0022e-09    .            .
137    .            .            .           4.0022e-09
;

q [*,*]
:     1   2   3   4   5   6   8   9  10  11  12  14      15     16  17  18  19 :=
3     .   .   .   .   .   .   .   .   .   .   0   .       .      .   .   .   .
4     .   .   .   .   .   .   .   .   .   .   .   .       .      .   .   0   .
6     .   .   .   .   .   .   .   .   0   .   .   .       .      .   .   .   .
20    .   .   .   .   .   .   .   .   .   .   .   .       .      .   .   0   .
24    .   .   .   .   .   .   0   .   .   .   .   .       .      .   .   .   .
26    .   .   .   .   .   .   .   .   .   .   .   .       .      0   .   .   .
27    .   .   .   .   .   .   .   .   .   .   .   0       .      .   .   .   .
37    .   .   .   .   0   .   .   .   .   .   .   .       .      .   .   .   .
39    .   .   .   .   .   .   .   .   .   .   .   .       .      .   0   .   .
41    .   .   .   .   .   .   .   .   .   .   .   .       .      .   0   .   .
43    .   .   .   .   .   .   .   .   0   .   .   .       .      .   .   .   .
50    .   .   .   0   .   .   .   .   .   .   .   .       .      .   .   .   .
67    .   .   .   .   .   .   .   .   .   .   .   .       .      0   .   .   .
71    .   .   .   .   .   .   .   0   .   .   .   .       .      .   .   .   .
76    .   .   .   .   0   .   .   .   .   .   .   .       .      .   .   .   .
80    .   .   .   .   .   0   .   .   0   .   .   .       .      .   .   .   .
85    .   .   .   .   .   0   .   .   .   .   .   .       .      .   .   .   .
90    0   .   .   .   .   .   .   .   .   .   .   .       .      .   .   .   .
93    .   .   .   .   .   .   .   .   .   .   .   .       .      .   .   .   0
110   .   .   .   .   .   .   .   .   .   .   .   0       .      .   .   .   .
113   .   0   .   .   .   .   .   .   .   .   .   .       .      .   .   .   .
125   0   .   .   .   .   .   .   .   .   .   .   .       .      .   .   .   .
126   .   .   .   .   .   .   .   .   .   0   .   .       .      .   .   .   .
138   .   .   0   .   .   .   .   .   .   .   .   .       .      .   .   .   .
142   .   .   .   .   .   .   .   .   .   .   .   .   -122.364   .   .   .   .

:    20  21  22  23  24  25  26  28  29  31  32  33      34     35  36  37   :=
1     .   .   .   .   .   0   .   .   .   .   .   .     .        .   .   .
7     .   .   .   .   .   .   .   .   .   .   .   .   -0.00335   .   .   .
9     .   .   0   .   .   .   .   .   0   .   .   .     .        .   .   .
12    .   .   0   .   .   .   .   .   .   .   .   .     .        .   .   .
18    .   .   .   0   .   .   .   .   .   .   .   .     .        .   .   .
20    .   .   .   0   .   .   .   .   .   .   .   .     .        .   .   .
24    .   .   .   .   .   .   .   .   .   .   .   .     .        .   0   .
31    .   .   .   .   .   .   .   .   .   .   .   .     .        .   .   0
42    .   .   .   .   .   .   .   .   .   .   .   .     .        .   0   .
49    .   .   .   .   .   .   .   .   .   .   .   0     .        .   .   .
51    .   .   .   .   .   .   .   0   .   .   .   .     .        .   .   .
57    .   .   .   .   .   .   .   .   .   0   .   .     .        .   .   .
60    .   .   .   .   .   .   .   .   .   .   0   .     .        .   .   .
68    0   .   .   .   .   .   .   .   .   .   .   .     .        .   .   .
73    .   .   .   .   .   .   .   0   .   .   0   .     .        .   .   .
74    .   .   .   .   .   .   0   .   .   .   .   .     .        .   .   .
86    .   .   .   .   .   .   .   0   .   .   .   .     .        .   .   .
101   .   .   .   .   0   .   .   .   .   .   .   .     .        .   .   .
102   .   .   .   .   .   .   .   .   .   .   .   .     .        0   .   .
112   .   .   .   .   .   .   .   .   0   .   .   .     .        .   .   .
115   .   .   0   .   .   .   .   .   .   .   .   .     .        .   .   .
129   .   0   .   .   .   .   .   .   .   .   .   .     .        .   .   .

:        38       39    40     41    42  43  44      45     46  47  48  49  50 :=
2       .          .     .     .      .   .   .     .        .   .   0   .   .
11      .          .     .     .      .   .   .     .        .   .   0   .   .
13      .          .     .     .      .   .   .   -0.00251   .   .   .   .   .
20      .          .     .     .      .   .   .     .        .   .   .   .   0
25      .          .     .     .      .   .   .     .        .   .   .   0   .
30    -0.00971     .     .     .      .   .   .     .        .   .   .   .   .
33      .          .     .     .      .   .   .    0         .   .   .   .   .
35      .          .     .     .      .   .   0     .        .   .   .   .   .
40      .          .     .     .      .   0   .     .        .   .   .   .   .
62      .          .     .     .      0   .   .     .        .   .   .   .   .
75      .          .     .     .      0   .   .     .        .   .   .   .   .
78      .          .     .     .      .   .   .     .        .   0   .   .   .
83      .         0      0     .      .   .   .     .        .   .   .   .   .
85      .          .     .     .      .   0   .     .        .   .   .   .   .
96      .          .     .     .      .   .   .     .        .   0   .   .   .
100     .          .     .     .      .   .   .     .        0   .   .   .   .
110     .          .     .     .      .   .   .     .        .   .   .   0   .
120     .        -0.17   .     .      .   .   .     .        .   .   .   .   .
123     .          .     .     .      .   .   .     .        .   .   .   .   0
125     .          .     .     .      .   .   .     .        .   .   .   0   .
133     .          .     .   -0.387   .   .   .     .        .   .   .   .   .

:    51  52  53  54  57  58  59  60  61  62  63  64  65  66  67  68  69  70  71 :=
5     .   .   .   .   .   0   .   .   .   .   .   .   .   .   .   .   .   .   .
9     .   .   .   .   .   .   0   .   .   .   .   .   .   .   .   .   .   .   .
11    .   0   .   .   .   .   .   .   .   .   .   .   .   .   .   .   .   .   .
17    .   .   .   0   .   .   .   .   .   .   .   .   .   .   .   .   .   .   .
21    .   .   .   .   .   .   .   .   .   .   .   .   .   .   .   0   .   .   .
23    .   .   .   .   .   .   .   .   .   .   .   .   0   .   .   .   .   .   .
27    .   .   .   .   .   .   .   .   .   .   .   .   0   .   .   .   .   .   .
32    .   .   .   .   .   0   .   .   .   .   .   .   .   .   0   .   .   .   .
41    .   .   .   0   .   .   .   .   .   .   .   .   .   .   .   .   .   .   .
42    .   .   .   .   .   .   .   .   .   .   .   .   .   .   .   .   0   .   .
44    .   .   .   .   .   .   .   .   .   .   .   .   .   0   .   .   .   .   .
46    .   .   .   .   .   .   .   .   .   .   .   0   .   .   .   .   .   .   .
47    .   .   0   .   .   .   .   .   .   .   .   .   .   .   .   .   .   .   .
48    .   0   .   .   .   .   .   .   .   .   .   .   .   .   .   .   .   .   .
53    .   .   .   .   .   .   .   .   .   .   0   .   .   .   .   .   .   .   .
56    .   .   .   0   .   .   .   .   .   .   .   .   .   .   .   .   .   .   .
58    .   .   .   .   .   .   .   0   .   .   .   .   .   .   .   .   .   .   .
60    .   .   .   .   0   .   .   .   .   .   .   .   .   .   .   .   .   .   .
72    .   .   .   .   .   .   .   .   .   0   .   .   .   .   .   .   .   .   .
74    .   .   .   .   .   .   .   .   .   .   .   .   .   .   0   .   .   .   .
76    .   .   .   .   .   .   0   .   .   .   .   .   .   .   .   .   .   .   .
77    .   .   .   .   0   .   .   .   .   .   .   .   .   .   .   .   .   .   .
78    .   .   0   .   .   .   .   .   .   .   .   .   .   .   .   .   .   .   .
79    .   .   .   .   .   .   .   .   .   .   .   .   .   .   .   .   .   .   0
86    .   .   .   .   .   0   .   .   .   .   .   .   .   .   .   .   .   .   .
95    0   .   .   .   .   .   .   .   .   .   .   .   .   .   .   .   .   .   .
99    .   .   .   .   .   .   .   .   .   .   0   .   .   .   .   .   .   .   .
101   .   .   .   .   .   .   .   .   .   .   .   .   .   .   .   .   .   0   .
103   0   .   .   .   .   .   .   .   .   .   .   .   .   .   .   .   .   .   .
109   .   0   .   .   .   .   .   .   .   .   .   .   .   .   .   .   .   .   .
130   .   .   .   .   .   .   .   .   0   .   .   .   .   .   .   .   .   .   .
135   .   .   .   .   .   .   0   .   .   .   .   .   .   .   .   .   .   .   .

:    72  73  74  75  76  77      78     79  80  81  82  83  84  85  86  87  89 :=
2     .   .   .   .   .   .     .        .   .   .   .   .   .   .   .   .   0
8     .   .   .   .   .   .    0         .   .   .   .   .   .   .   .   .   .
10    0   .   .   .   .   .     .        .   .   .   .   .   .   .   .   .   .
17    .   .   .   .   .   .     .        .   .   .   .   0   .   .   .   .   .
19    .   .   .   .   .   .     .        .   .   .   .   .   0   .   .   .   .
34    .   .   .   .   .   .   -0.00839   .   .   .   .   .   .   .   .   .   .
35    .   .   .   .   .   .     .        .   .   .   .   .   .   0   .   .   .
36    .   .   .   0   .   .     .        .   .   .   .   .   .   .   .   .   .
37    .   .   .   .   0   .     .        .   .   .   .   .   .   .   .   .   .
52    .   .   .   .   .   .     .        .   .   0   .   .   .   .   .   .   .
55    .   .   .   .   .   0     .        .   .   .   .   .   .   .   .   .   .
60    .   .   0   .   .   .     .        .   .   .   .   .   .   .   .   .   .
63    .   .   .   .   .   .     .        .   .   .   .   .   .   .   .   0   .
66    .   .   .   .   .   .     .        .   .   .   .   .   .   0   .   .   .
70    .   .   .   .   .   .     .        .   .   .   .   .   .   .   .   0   .
82    .   .   .   .   .   .     .        .   0   .   .   .   .   .   .   .   .
87    .   .   .   .   .   0     .        .   .   .   .   .   .   .   .   .   .
89    .   .   .   .   .   .     .        .   0   .   .   .   .   .   .   .   .
91    .   .   .   .   .   .     .        .   .   .   .   .   .   .   .   0   .
95    .   0   .   .   .   .     .        .   .   .   .   .   .   .   .   .   .
106   .   .   .   0   .   .     .        .   .   .   .   .   .   .   .   .   .
109   .   .   .   .   .   .     .        .   .   .   0   .   .   .   .   .   .
111   .   .   .   .   .   .     .        .   .   .   .   .   .   .   0   .   .
117   .   .   .   .   .   .     .        0   .   .   .   .   .   .   .   .   .
143   .   .   .   .   .   .     .        0   .   .   .   .   .   .   .   .   .

:        90     91  92  93  94  95  96  97  99 100 101     102   103 104 105 :=
14      .        .   .   .   .   .   .   0   .   .   .     .       .   .   .
24      .        .   .   .   .   .   .   .   0   .   .     .       .   .   .
27      .        .   .   .   0   .   .   .   .   .   .     .       .   .   .
29      .        .   .   .   .   .   .   .   .   .   .     .       0   .   .
31      .        .   .   .   .   .   .   .   .   .   .     .       .   0   .
47      .        0   .   .   .   .   .   .   .   .   .     .       .   .   .
53      .        0   .   .   .   .   .   .   .   .   .     .       .   .   .
54      .        .   .   0   .   .   .   .   .   .   .     .       .   .   .
55      .        .   .   .   .   .   .   0   .   0   .     .       .   .   .
56     0         .   .   .   .   .   .   .   .   .   .     .       .   .   .
61      .        .   .   0   .   .   .   .   .   .   .     .       .   .   .
64      .        0   .   .   .   .   .   .   .   .   .     .       .   .   .
65      .        .   .   .   .   .   0   .   .   .   .     .       .   .   .
68      .        .   .   .   0   .   .   .   .   .   .     .       .   .   .
75      .        .   .   .   .   .   .   .   .   .   0     .       .   .   .
81      .        .   .   .   .   .   .   .   .   .   .     .       .   0   .
97      .        .   .   .   .   .   .   .   .   0   .     .       .   .   .
103     .        .   .   .   .   0   .   .   .   .   .     .       .   .   .
104     .        .   .   .   .   .   .   .   .   .   0     .       .   .   .
105     .        .   .   .   .   .   .   .   .   .   .     .       0   .   .
108     .        .   .   .   .   0   .   .   .   .   .     .       .   .   .
112     .        .   .   .   .   .   .   .   .   .   .     .       .   .   0
114     .        .   0   .   .   .   .   .   .   .   .     .       .   .   .
118   -0.17436   .   .   .   .   .   .   .   .   .   .     .       .   .   .
126     .        .   .   .   .   .   .   .   .   .   .     .       .   0   .
130     .        .   .   0   .   .   .   .   .   .   .     .       .   .   .
131     .        .   .   .   .   .   .   .   .   .   .   -0.0999   .   .   .
141     .        .   .   .   .   .   .   .   .   .   .    0        .   .   .

:   106    107  108 109 110 111     112    113     114   115     116   117   :=
2     .     .     .   0   .   .       .      .     .       .     .       .
5     .     .     .   .   .   .       .      .    0        .     .       .
16    .     .     .   .   0   .       .      .     .       .     .       .
28    .     .     .   .   .   0       .      .     .       .     .       .
69    0     .     .   .   .   .       .      .     .       .     .       .
88    .     .     .   .   .   .       .      .   -0.0111   .     .       .
89    .     .     .   0   .   .       .      .     .       .     .       .
92    .     .     .   .   .   0       .      .     .       .     .       .
105   .     .     0   .   .   .       .      .     .       .     .       .
107   .     .     .   .   .   .       .      .     .       .   -0.1938   .
111   .     .     .   .   .   .       .      .    0        .     .       .
112   .     .     0   .   .   .       .      .     .       .     .       .
119   .     .     .   .   .   .       .      .     .       0     .       .
122   .   -0.17   .   .   .   .       .      .     .       .     .       .
128   .     .     .   .   .   .   -245.461   .     .       .     .       .
135   .     .     .   .   .   .       .      0     .       .     .       .
143   .     .     .   .   .   .       .      .     .       .     .       0

:       118    119     121    123 125 126     128    129     130       133   :=
15      .        .       .      .   .   .   -122.401   .     .          .
21      .        .       .      .   .   .       .      .    0           .
38      .        .       .      .   .   .       .      .   -0.02121     .
45      .        .       .      .   0   .       .      .     .          .
59      .        .       .      .   .   0       .      .     .          .
71      .        0       .      .   .   .       .      .     .          .
76      .        .       .      .   .   0       .      .     .          .
84      .        .       .      0   .   .       .      .     .          .
94      .        .       .      .   .   .       .      0     .          .
98    -0.00436   .       .      .   .   .       .      .     .          .
121     .        .       .      .   .   .   -122.509   .     .          .
124     .        .     -0.339   .   .   .       .      .     .          .
132     .        .       .      .   .   .       .      .     .        -0.161
140     .        .   -122       .   .   .       .      .     .          .

:     134  135    136  138   141      142     143     :=
22     .     0     .     .     .      .        .
102      0   .     .     .     .      .        .
115    .     .     .     0     .      .        .
116    .     .     .     .     .    -0.3638    .
127    .     .   -0.85   .     .      .        .
134    .     .     .     .    0       .        .
136    .     .     .     .   -1.6     .        .
137    .     .     .     .     .      .       -122
139   -122   .     .     .     .      .        .
;

